playerRanks = [6,3,16,11,16,16,13,13,12,12,3,1,8,10,8,4,7,8,4,1,6,7,13,1];
players = ["Darkness  sem 6","Samuelps  s3. 3","Chicken lem 16","Dr.eggman/eask64  mg1.  11","Ditlesen  lem 16","wolverin  lem 16","Crimsonfukrr  mge 13","Nazario mge 13","kaptein snabeltann  mg2.  12","Le pipe mg2.  12","bna-cooky s3. 3","ClemensBenz[500E] s1. 1","Buððah  gn2.  8","McDuckian gnm 10","Madde gn2.  8","Falchy  s4. 4","KSI gn1.  7","l0lpalme  gn2.  8","Youngfafo s4. 4","antorn3dthe7th  s1. 1","IQStrom sem 6","Shabby  gn1.  7","LuftGraven  mg2.  12","SchousKanser  s1. 1"];
tonjeIndex = 15;
haraldIndex = 18;
chickenIndex = 3;
clementsIndex = 10